p cnf 200 1110
-101 74 0
-101 -85 0
-101 -5 0
-101 44 0
-101 39 0
-101 15 0
-101 -6 0
-101 -35 0
-101 42 0
-101 67 0
101 -74 85 5 -44 -39 -15 6 35 -42 -67 0
-102 -33 0
-102 4 0
-102 94 0
-102 88 0
-102 -57 0
-102 71 0
-102 -90 0
-102 -2 0
-102 -28 0
-102 -37 0
102 33 -4 -94 -88 57 -71 90 2 28 37 0
-103 -30 0
-103 56 0
-103 -46 0
-103 -87 0
-103 -9 0
-103 -92 0
-103 95 0
-103 6 0
-103 43 0
-103 -72 0
103 30 -56 46 87 9 92 -95 -6 -43 72 0
-104 -42 0
-104 -10 0
-104 13 0
-104 4 0
-104 98 0
-104 58 0
-104 -86 0
-104 40 0
-104 5 0
-104 20 0
104 42 10 -13 -4 -98 -58 86 -40 -5 -20 0
-105 -25 0
-105 69 0
-105 -100 0
-105 -15 0
-105 70 0
-105 41 0
-105 -40 0
-105 -6 0
-105 8 0
-105 16 0
105 25 -69 100 15 -70 -41 40 6 -8 -16 0
-106 85 0
-106 19 0
-106 10 0
-106 3 0
-106 62 0
-106 14 0
-106 63 0
-106 41 0
-106 -46 0
-106 69 0
106 -85 -19 -10 -3 -62 -14 -63 -41 46 -69 0
-107 -87 0
-107 -70 0
-107 -11 0
-107 -80 0
-107 -50 0
-107 10 0
-107 22 0
-107 -32 0
-107 -18 0
-107 -56 0
107 87 70 11 80 50 -10 -22 32 18 56 0
-108 -27 0
-108 -49 0
-108 43 0
-108 -5 0
-108 -47 0
-108 26 0
-108 23 0
-108 80 0
-108 -82 0
-108 37 0
108 27 49 -43 5 47 -26 -23 -80 82 -37 0
-109 -76 0
-109 6 0
-109 -97 0
-109 29 0
-109 -62 0
-109 -52 0
-109 3 0
-109 -22 0
-109 15 0
-109 9 0
109 76 -6 97 -29 62 52 -3 22 -15 -9 0
-110 17 0
-110 -77 0
-110 -86 0
-110 83 0
-110 -75 0
-110 10 0
-110 81 0
-110 31 0
-110 94 0
-110 15 0
110 -17 77 86 -83 75 -10 -81 -31 -94 -15 0
101 102 103 104 105 106 107 108 109 110 0
-111 -36 0
-111 71 0
-111 32 0
-111 47 0
-111 85 0
-111 35 0
-111 -17 0
-111 45 0
-111 91 0
-111 -19 0
111 36 -71 -32 -47 -85 -35 17 -45 -91 19 0
-112 3 0
-112 43 0
-112 -65 0
-112 17 0
-112 -46 0
-112 57 0
-112 19 0
-112 -52 0
-112 -62 0
-112 33 0
112 -3 -43 65 -17 46 -57 -19 52 62 -33 0
-113 -39 0
-113 -15 0
-113 11 0
-113 -62 0
-113 37 0
-113 -3 0
-113 -43 0
-113 -58 0
-113 92 0
-113 27 0
113 39 15 -11 62 -37 3 43 58 -92 -27 0
-114 -64 0
-114 -21 0
-114 4 0
-114 -72 0
-114 52 0
-114 53 0
-114 51 0
-114 -8 0
-114 -99 0
-114 77 0
114 64 21 -4 72 -52 -53 -51 8 99 -77 0
-115 62 0
-115 -53 0
-115 -76 0
-115 -32 0
-115 99 0
-115 12 0
-115 21 0
-115 -90 0
-115 -54 0
-115 -20 0
115 -62 53 76 32 -99 -12 -21 90 54 20 0
-116 -26 0
-116 -15 0
-116 -53 0
-116 58 0
-116 -55 0
-116 -8 0
-116 -10 0
-116 88 0
-116 32 0
-116 -87 0
116 26 15 53 -58 55 8 10 -88 -32 87 0
-117 34 0
-117 96 0
-117 -85 0
-117 -64 0
-117 93 0
-117 -91 0
-117 -16 0
-117 88 0
-117 86 0
-117 76 0
117 -34 -96 85 64 -93 91 16 -88 -86 -76 0
-118 -8 0
-118 59 0
-118 70 0
-118 -28 0
-118 41 0
-118 54 0
-118 -49 0
-118 78 0
-118 76 0
-118 47 0
118 8 -59 -70 28 -41 -54 49 -78 -76 -47 0
-119 -42 0
-119 18 0
-119 -34 0
-119 54 0
-119 62 0
-119 -99 0
-119 90 0
-119 20 0
-119 49 0
-119 -47 0
119 42 -18 34 -54 -62 99 -90 -20 -49 47 0
-120 65 0
-120 74 0
-120 69 0
-120 19 0
-120 -34 0
-120 -87 0
-120 20 0
-120 77 0
-120 -4 0
-120 -51 0
120 -65 -74 -69 -19 34 87 -20 -77 4 51 0
111 112 113 114 115 116 117 118 119 120 0
-121 -57 0
-121 68 0
-121 7 0
-121 4 0
-121 -70 0
-121 -9 0
-121 -85 0
-121 -53 0
-121 -79 0
-121 -28 0
121 57 -68 -7 -4 70 9 85 53 79 28 0
-122 -16 0
-122 70 0
-122 46 0
-122 32 0
-122 -64 0
-122 33 0
-122 20 0
-122 -62 0
-122 8 0
-122 38 0
122 16 -70 -46 -32 64 -33 -20 62 -8 -38 0
-123 75 0
-123 49 0
-123 -27 0
-123 39 0
-123 24 0
-123 85 0
-123 -98 0
-123 31 0
-123 -8 0
-123 73 0
123 -75 -49 27 -39 -24 -85 98 -31 8 -73 0
-124 -88 0
-124 57 0
-124 -44 0
-124 -31 0
-124 28 0
-124 -93 0
-124 66 0
-124 76 0
-124 -36 0
-124 71 0
124 88 -57 44 31 -28 93 -66 -76 36 -71 0
-125 -87 0
-125 -39 0
-125 73 0
-125 -36 0
-125 77 0
-125 92 0
-125 -95 0
-125 10 0
-125 40 0
-125 59 0
125 87 39 -73 36 -77 -92 95 -10 -40 -59 0
-126 -91 0
-126 -33 0
-126 -6 0
-126 -71 0
-126 88 0
-126 85 0
-126 -77 0
-126 -89 0
-126 9 0
-126 12 0
126 91 33 6 71 -88 -85 77 89 -9 -12 0
-127 1 0
-127 -9 0
-127 59 0
-127 -75 0
-127 25 0
-127 33 0
-127 81 0
-127 -90 0
-127 -32 0
-127 6 0
127 -1 9 -59 75 -25 -33 -81 90 32 -6 0
-128 -9 0
-128 94 0
-128 61 0
-128 68 0
-128 54 0
-128 -19 0
-128 85 0
-128 23 0
-128 -49 0
-128 -24 0
128 9 -94 -61 -68 -54 19 -85 -23 49 24 0
-129 -34 0
-129 26 0
-129 30 0
-129 -96 0
-129 51 0
-129 -13 0
-129 -54 0
-129 -29 0
-129 -76 0
-129 24 0
129 34 -26 -30 96 -51 13 54 29 76 -24 0
-130 -64 0
-130 -10 0
-130 76 0
-130 -55 0
-130 -53 0
-130 -49 0
-130 59 0
-130 61 0
-130 78 0
-130 -63 0
130 64 10 -76 55 53 49 -59 -61 -78 63 0
121 122 123 124 125 126 127 128 129 130 0
-131 35 0
-131 78 0
-131 65 0
-131 81 0
-131 -38 0
-131 25 0
-131 1 0
-131 17 0
-131 29 0
-131 -15 0
131 -35 -78 -65 -81 38 -25 -1 -17 -29 15 0
-132 39 0
-132 -23 0
-132 -89 0
-132 20 0
-132 74 0
-132 -49 0
-132 87 0
-132 -99 0
-132 62 0
-132 68 0
132 -39 23 89 -20 -74 49 -87 99 -62 -68 0
-133 34 0
-133 -91 0
-133 -52 0
-133 -84 0
-133 -73 0
-133 54 0
-133 97 0
-133 -42 0
-133 -28 0
-133 71 0
133 -34 91 52 84 73 -54 -97 42 28 -71 0
-134 76 0
-134 -23 0
-134 86 0
-134 93 0
-134 -46 0
-134 31 0
-134 54 0
-134 -68 0
-134 26 0
-134 -44 0
134 -76 23 -86 -93 46 -31 -54 68 -26 44 0
-135 -40 0
-135 21 0
-135 15 0
-135 -91 0
-135 -94 0
-135 -58 0
-135 23 0
-135 83 0
-135 -69 0
-135 81 0
135 40 -21 -15 91 94 58 -23 -83 69 -81 0
-136 15 0
-136 -31 0
-136 14 0
-136 68 0
-136 -71 0
-136 38 0
-136 39 0
-136 -95 0
-136 45 0
-136 -54 0
136 -15 31 -14 -68 71 -38 -39 95 -45 54 0
-137 -10 0
-137 -87 0
-137 -11 0
-137 -83 0
-137 82 0
-137 -47 0
-137 -62 0
-137 22 0
-137 55 0
-137 -58 0
137 10 87 11 83 -82 47 62 -22 -55 58 0
-138 -79 0
-138 -8 0
-138 -16 0
-138 -93 0
-138 94 0
-138 71 0
-138 92 0
-138 -12 0
-138 -91 0
-138 -97 0
138 79 8 16 93 -94 -71 -92 12 91 97 0
-139 -24 0
-139 42 0
-139 -43 0
-139 86 0
-139 -32 0
-139 -67 0
-139 14 0
-139 -72 0
-139 -31 0
-139 3 0
139 24 -42 43 -86 32 67 -14 72 31 -3 0
-140 -92 0
-140 6 0
-140 13 0
-140 17 0
-140 9 0
-140 55 0
-140 -12 0
-140 -91 0
-140 -90 0
-140 -82 0
140 92 -6 -13 -17 -9 -55 12 91 90 82 0
131 132 133 134 135 136 137 138 139 140 0
-141 -8 0
-141 18 0
-141 -34 0
-141 75 0
-141 61 0
-141 49 0
-141 -87 0
-141 -80 0
-141 58 0
-141 -59 0
141 8 -18 34 -75 -61 -49 87 80 -58 59 0
-142 -70 0
-142 -12 0
-142 97 0
-142 -71 0
-142 1 0
-142 -84 0
-142 -18 0
-142 57 0
-142 74 0
-142 -40 0
142 70 12 -97 71 -1 84 18 -57 -74 40 0
-143 83 0
-143 -73 0
-143 -25 0
-143 1 0
-143 -29 0
-143 -24 0
-143 -26 0
-143 -41 0
-143 -15 0
-143 -8 0
143 -83 73 25 -1 29 24 26 41 15 8 0
-144 77 0
-144 -79 0
-144 -19 0
-144 38 0
-144 -24 0
-144 90 0
-144 54 0
-144 -37 0
-144 57 0
-144 28 0
144 -77 79 19 -38 24 -90 -54 37 -57 -28 0
-145 -62 0
-145 85 0
-145 -26 0
-145 44 0
-145 67 0
-145 34 0
-145 -75 0
-145 -46 0
-145 92 0
-145 73 0
145 62 -85 26 -44 -67 -34 75 46 -92 -73 0
-146 -56 0
-146 -88 0
-146 17 0
-146 87 0
-146 33 0
-146 84 0
-146 100 0
-146 22 0
-146 -19 0
-146 30 0
146 56 88 -17 -87 -33 -84 -100 -22 19 -30 0
-147 -18 0
-147 45 0
-147 -61 0
-147 -20 0
-147 -5 0
-147 -25 0
-147 93 0
-147 -6 0
-147 88 0
-147 -84 0
147 18 -45 61 20 5 25 -93 6 -88 84 0
-148 31 0
-148 -1 0
-148 16 0
-148 75 0
-148 -95 0
-148 22 0
-148 -91 0
-148 85 0
-148 -44 0
-148 66 0
148 -31 1 -16 -75 95 -22 91 -85 44 -66 0
-149 4 0
-149 27 0
-149 -13 0
-149 8 0
-149 -52 0
-149 -79 0
-149 44 0
-149 -100 0
-149 97 0
-149 83 0
149 -4 -27 13 -8 52 79 -44 100 -97 -83 0
-150 -19 0
-150 47 0
-150 -38 0
-150 89 0
-150 -53 0
-150 34 0
-150 -28 0
-150 -94 0
-150 -59 0
-150 86 0
150 19 -47 38 -89 53 -34 28 94 59 -86 0
141 142 143 144 145 146 147 148 149 150 0
-151 36 0
-151 51 0
-151 27 0
-151 -92 0
-151 -96 0
-151 -6 0
-151 -28 0
-151 -57 0
-151 42 0
-151 14 0
151 -36 -51 -27 92 96 6 28 57 -42 -14 0
-152 -84 0
-152 85 0
-152 -97 0
-152 -58 0
-152 -33 0
-152 80 0
-152 29 0
-152 59 0
-152 61 0
-152 68 0
152 84 -85 97 58 33 -80 -29 -59 -61 -68 0
-153 -20 0
-153 -83 0
-153 52 0
-153 53 0
-153 3 0
-153 72 0
-153 38 0
-153 -76 0
-153 68 0
-153 -11 0
153 20 83 -52 -53 -3 -72 -38 76 -68 11 0
-154 -67 0
-154 33 0
-154 -27 0
-154 -91 0
-154 -39 0
-154 -22 0
-154 47 0
-154 53 0
-154 72 0
-154 -36 0
154 67 -33 27 91 39 22 -47 -53 -72 36 0
-155 -55 0
-155 35 0
-155 85 0
-155 99 0
-155 87 0
-155 39 0
-155 -11 0
-155 -59 0
-155 38 0
-155 42 0
155 55 -35 -85 -99 -87 -39 11 59 -38 -42 0
-156 -78 0
-156 95 0
-156 15 0
-156 -76 0
-156 93 0
-156 6 0
-156 -7 0
-156 68 0
-156 -39 0
-156 18 0
156 78 -95 -15 76 -93 -6 7 -68 39 -18 0
-157 55 0
-157 -1 0
-157 -82 0
-157 -90 0
-157 -91 0
-157 37 0
-157 63 0
-157 9 0
-157 -3 0
-157 -59 0
157 -55 1 82 90 91 -37 -63 -9 3 59 0
-158 67 0
-158 63 0
-158 54 0
-158 70 0
-158 -34 0
-158 -65 0
-158 75 0
-158 -46 0
-158 -20 0
-158 -15 0
158 -67 -63 -54 -70 34 65 -75 46 20 15 0
-159 77 0
-159 68 0
-159 -97 0
-159 -94 0
-159 -21 0
-159 50 0
-159 -46 0
-159 32 0
-159 -24 0
-159 10 0
159 -77 -68 97 94 21 -50 46 -32 24 -10 0
-160 -43 0
-160 20 0
-160 -27 0
-160 -54 0
-160 73 0
-160 80 0
-160 -57 0
-160 14 0
-160 99 0
-160 97 0
160 43 -20 27 54 -73 -80 57 -14 -99 -97 0
151 152 153 154 155 156 157 158 159 160 0
-161 12 0
-161 6 0
-161 4 0
-161 99 0
-161 -75 0
-161 -5 0
-161 78 0
-161 96 0
-161 70 0
-161 -80 0
161 -12 -6 -4 -99 75 5 -78 -96 -70 80 0
-162 6 0
-162 -41 0
-162 -36 0
-162 -91 0
-162 -93 0
-162 -88 0
-162 8 0
-162 -61 0
-162 -39 0
-162 58 0
162 -6 41 36 91 93 88 -8 61 39 -58 0
-163 -71 0
-163 -26 0
-163 38 0
-163 -56 0
-163 -2 0
-163 55 0
-163 31 0
-163 -73 0
-163 70 0
-163 75 0
163 71 26 -38 56 2 -55 -31 73 -70 -75 0
-164 54 0
-164 -61 0
-164 45 0
-164 46 0
-164 77 0
-164 -21 0
-164 -48 0
-164 -59 0
-164 97 0
-164 -42 0
164 -54 61 -45 -46 -77 21 48 59 -97 42 0
-165 -64 0
-165 -55 0
-165 -78 0
-165 -9 0
-165 15 0
-165 -13 0
-165 -41 0
-165 37 0
-165 50 0
-165 25 0
165 64 55 78 9 -15 13 41 -37 -50 -25 0
-166 -49 0
-166 -6 0
-166 -62 0
-166 -84 0
-166 64 0
-166 82 0
-166 65 0
-166 -52 0
-166 -30 0
-166 4 0
166 49 6 62 84 -64 -82 -65 52 30 -4 0
-167 55 0
-167 5 0
-167 -90 0
-167 -30 0
-167 8 0
-167 -28 0
-167 -73 0
-167 -24 0
-167 -78 0
-167 64 0
167 -55 -5 90 30 -8 28 73 24 78 -64 0
-168 -52 0
-168 -20 0
-168 -96 0
-168 -85 0
-168 58 0
-168 2 0
-168 -47 0
-168 79 0
-168 -1 0
-168 -75 0
168 52 20 96 85 -58 -2 47 -79 1 75 0
-169 81 0
-169 25 0
-169 -95 0
-169 19 0
-169 75 0
-169 -92 0
-169 -31 0
-169 -56 0
-169 -82 0
-169 -55 0
169 -81 -25 95 -19 -75 92 31 56 82 55 0
-170 87 0
-170 59 0
-170 39 0
-170 62 0
-170 -77 0
-170 -44 0
-170 64 0
-170 -85 0
-170 -73 0
-170 -35 0
170 -87 -59 -39 -62 77 44 -64 85 73 35 0
161 162 163 164 165 166 167 168 169 170 0
-171 -64 0
-171 -100 0
-171 59 0
-171 -32 0
-171 -90 0
-171 99 0
-171 74 0
-171 17 0
-171 76 0
-171 -34 0
171 64 100 -59 32 90 -99 -74 -17 -76 34 0
-172 95 0
-172 -54 0
-172 -64 0
-172 -67 0
-172 -60 0
-172 40 0
-172 -48 0
-172 -15 0
-172 -91 0
-172 -99 0
172 -95 54 64 67 60 -40 48 15 91 99 0
-173 61 0
-173 -89 0
-173 31 0
-173 93 0
-173 -35 0
-173 -70 0
-173 -14 0
-173 -54 0
-173 37 0
-173 -19 0
173 -61 89 -31 -93 35 70 14 54 -37 19 0
-174 -61 0
-174 32 0
-174 -23 0
-174 16 0
-174 72 0
-174 97 0
-174 27 0
-174 -28 0
-174 41 0
-174 14 0
174 61 -32 23 -16 -72 -97 -27 28 -41 -14 0
-175 -18 0
-175 36 0
-175 -75 0
-175 -12 0
-175 30 0
-175 11 0
-175 22 0
-175 -10 0
-175 8 0
-175 1 0
175 18 -36 75 12 -30 -11 -22 10 -8 -1 0
-176 -3 0
-176 39 0
-176 -5 0
-176 26 0
-176 -30 0
-176 -22 0
-176 -82 0
-176 -29 0
-176 19 0
-176 10 0
176 3 -39 5 -26 30 22 82 29 -19 -10 0
-177 57 0
-177 -87 0
-177 -63 0
-177 -86 0
-177 -91 0
-177 82 0
-177 -22 0
-177 56 0
-177 46 0
-177 96 0
177 -57 87 63 86 91 -82 22 -56 -46 -96 0
-178 -56 0
-178 7 0
-178 -38 0
-178 -4 0
-178 -2 0
-178 -90 0
-178 73 0
-178 -66 0
-178 40 0
-178 76 0
178 56 -7 38 4 2 90 -73 66 -40 -76 0
-179 41 0
-179 -8 0
-179 -22 0
-179 -28 0
-179 50 0
-179 -57 0
-179 -73 0
-179 -88 0
-179 -27 0
-179 -30 0
179 -41 8 22 28 -50 57 73 88 27 30 0
-180 92 0
-180 16 0
-180 -87 0
-180 -25 0
-180 21 0
-180 -93 0
-180 73 0
-180 -83 0
-180 -59 0
-180 -43 0
180 -92 -16 87 25 -21 93 -73 83 59 43 0
171 172 173 174 175 176 177 178 179 180 0
-181 93 0
-181 -32 0
-181 92 0
-181 52 0
-181 82 0
-181 -6 0
-181 -10 0
-181 -29 0
-181 -89 0
-181 -80 0
181 -93 32 -92 -52 -82 6 10 29 89 80 0
-182 -4 0
-182 -26 0
-182 49 0
-182 42 0
-182 -67 0
-182 85 0
-182 -100 0
-182 14 0
-182 62 0
-182 82 0
182 4 26 -49 -42 67 -85 100 -14 -62 -82 0
-183 -88 0
-183 55 0
-183 44 0
-183 -83 0
-183 46 0
-183 69 0
-183 38 0
-183 4 0
-183 7 0
-183 95 0
183 88 -55 -44 83 -46 -69 -38 -4 -7 -95 0
-184 40 0
-184 62 0
-184 37 0
-184 48 0
-184 31 0
-184 -26 0
-184 23 0
-184 -15 0
-184 61 0
-184 -60 0
184 -40 -62 -37 -48 -31 26 -23 15 -61 60 0
-185 98 0
-185 100 0
-185 -94 0
-185 33 0
-185 -12 0
-185 47 0
-185 -91 0
-185 59 0
-185 1 0
-185 84 0
185 -98 -100 94 -33 12 -47 91 -59 -1 -84 0
-186 -2 0
-186 38 0
-186 -72 0
-186 -46 0
-186 -39 0
-186 67 0
-186 8 0
-186 70 0
-186 -62 0
-186 82 0
186 2 -38 72 46 39 -67 -8 -70 62 -82 0
-187 -37 0
-187 -100 0
-187 -79 0
-187 -57 0
-187 10 0
-187 -2 0
-187 17 0
-187 -8 0
-187 7 0
-187 -90 0
187 37 100 79 57 -10 2 -17 8 -7 90 0
-188 92 0
-188 -84 0
-188 -17 0
-188 50 0
-188 80 0
-188 -38 0
-188 74 0
-188 -39 0
-188 -26 0
-188 -95 0
188 -92 84 17 -50 -80 38 -74 39 26 95 0
-189 16 0
-189 -11 0
-189 2 0
-189 -42 0
-189 66 0
-189 69 0
-189 45 0
-189 7 0
-189 96 0
-189 86 0
189 -16 11 -2 42 -66 -69 -45 -7 -96 -86 0
-190 -82 0
-190 56 0
-190 2 0
-190 63 0
-190 -27 0
-190 36 0
-190 97 0
-190 3 0
-190 22 0
-190 94 0
190 82 -56 -2 -63 27 -36 -97 -3 -22 -94 0
181 182 183 184 185 186 187 188 189 190 0
-191 90 0
-191 -20 0
-191 -53 0
-191 63 0
-191 -36 0
-191 2 0
-191 28 0
-191 80 0
-191 -94 0
-191 -55 0
191 -90 20 53 -63 36 -2 -28 -80 94 55 0
-192 -16 0
-192 -32 0
-192 -74 0
-192 36 0
-192 -6 0
-192 -29 0
-192 21 0
-192 83 0
-192 11 0
-192 30 0
192 16 32 74 -36 6 29 -21 -83 -11 -30 0
-193 -45 0
-193 62 0
-193 38 0
-193 -67 0
-193 -7 0
-193 3 0
-193 -72 0
-193 100 0
-193 57 0
-193 -59 0
193 45 -62 -38 67 7 -3 72 -100 -57 59 0
-194 74 0
-194 -15 0
-194 87 0
-194 -44 0
-194 -7 0
-194 -33 0
-194 -59 0
-194 1 0
-194 55 0
-194 -42 0
194 -74 15 -87 44 7 33 59 -1 -55 42 0
-195 -94 0
-195 70 0
-195 -89 0
-195 -35 0
-195 39 0
-195 98 0
-195 34 0
-195 -65 0
-195 72 0
-195 -75 0
195 94 -70 89 35 -39 -98 -34 65 -72 75 0
-196 -20 0
-196 -5 0
-196 -89 0
-196 -6 0
-196 -44 0
-196 23 0
-196 39 0
-196 13 0
-196 49 0
-196 52 0
196 20 5 89 6 44 -23 -39 -13 -49 -52 0
-197 86 0
-197 -22 0
-197 -47 0
-197 -34 0
-197 97 0
-197 -79 0
-197 48 0
-197 -49 0
-197 36 0
-197 -14 0
197 -86 22 47 34 -97 79 -48 49 -36 14 0
-198 -55 0
-198 5 0
-198 -25 0
-198 87 0
-198 61 0
-198 68 0
-198 -57 0
-198 -59 0
-198 -73 0
-198 -70 0
198 55 -5 25 -87 -61 -68 57 59 73 70 0
-199 -25 0
-199 -61 0
-199 57 0
-199 36 0
-199 -23 0
-199 -32 0
-199 85 0
-199 79 0
-199 40 0
-199 -30 0
199 25 61 -57 -36 23 32 -85 -79 -40 30 0
-200 -13 0
-200 53 0
-200 -46 0
-200 64 0
-200 4 0
-200 29 0
-200 -88 0
-200 -96 0
-200 -57 0
-200 -100 0
200 13 -53 46 -64 -4 -29 88 96 57 100 0
191 192 193 194 195 196 197 198 199 200 0
